29207
100111100110110001111101110110
18 19 23 27 5 6 5 27 27 28 4 28 13 13 19 18 5 20 24 0 18 21 5 0 13 27 24 20 4 21 19 19 19 21 27 6 20 3 24 21 18 9 19 6 9 4 13 0 19 17 0 0 21 21 20 6 25 9 18 25 4 0 12 20 13 25 5 28 19 25 18 6 19 20 23 13 10 10 9 24 10 5 6 12 4 23 6 5 27 25 28 6 25 25 5 20 28 12 23 28 19 21 25 18 4 0 4 27 27 3 19 4 27 6 12 20 28 25 28 20 10 12 12 9 9 21 21 28 4 9 28 24 6 20 23 20 3 13 28 20 12 24 28 25 25 24 24 24 18 25 24 17 9 17 13 18 0 21 13 13 10 24 10 17 5 27 23 19 13 21 13 20 19 28 4 0 0 10 4 10 5 21 0 19 12 9 27 23 0 21 24 0 6 4 25 12 25 21 10 12 